875
100
137 769
120 631
125 623
122 684
73 298
115 522
207 935
138 708
76 312
281 1469
240 1259
74 440
72 395
168 917
99 526
53 311
145 862
272 1110
183 781
225 1125
232 1323
35 204
83 360
46 220
92 453
119 680
138 722
69 343
144 787
112 550
45 221
72 414
56 298
174 864
118 679
244 1129
27 140
208 876
216 1054
165 792
167 960
85 362
89 408
344 1737
46 270
21 118
65 348
260 1177
27 119
157 707
58 327
164 926
99 503
89 430
71 300
223 940
52 211
62 273
122 693
79 352
82 362
115 572
205 827
74 441
160 729
175 886
105 488
121 660
167 677
110 548
192 1085
90 436
16 96
68 376
65 288
217 973
171 807
126 663
91 388
148 596
163 800
109 581
72 396
329 1349
56 307
222 1131
32 133
213 1054
55 259
197 1074
266 1293
38 186
109 592
137 612
88 368
160 784
111 494
178 891
52 267
259 1053